size = 20;
mines_count = 100;
fields = array2d(1..size, 1..size, [1,2,2,3,3,9,-1,-1,-1,-1,-1,-1,9,-1,9,9,-1,-1,9,-1,9,-1,9,9,9,-1,-1,-1,-1,-1,-1,9,-1,9,-1,9,-1,-1,-1,-1,-1,-1,9,-1,-1,9,9,-1,-1,-1,-1,-1,9,9,9,-1,-1,-1,9,-1,9,-1,-1,-1,-1,-1,-1,-1,-1,-1,9,-1,9,-1,-1,-1,-1,9,-1,-1,9,9,-1,-1,-1,-1,-1,-1,-1,-1,-1,-1,-1,9,-1,-1,-1,9,9,9,-1,9,-1,-1,-1,9,-1,-1,9,-1,-1,-1,9,9,-1,-1,9,-1,-1,-1,-1,-1,-1,9,5,9,-1,-1,9,-1,-1,-1,-1,-1,-1,9,9,-1,-1,-1,-1,-1,-1,9,9,2,-1,9,-1,9,-1,-1,9,9,-1,9,-1,-1,-1,9,-1,-1,9,-1,-1,-1,2,1,2,1,2,-1,-1,9,-1,9,-1,-1,-1,-1,-1,-1,-1,-1,-1,9,1,0,0,0,1,9,9,-1,-1,-1,9,-1,-1,-1,9,-1,-1,9,-1,2,1,0,0,0,1,-1,-1,9,-1,-1,-1,-1,9,-1,-1,9,-1,9,9,1,0,0,1,1,1,-1,-1,-1,-1,-1,9,-1,-1,-1,-1,9,-1,-1,-1,2,0,0,1,9,-1,-1,9,-1,-1,-1,-1,-1,-1,-1,9,-1,-1,-1,9,3,1,2,2,-1,9,-1,-1,-1,-1,-1,-1,9,-1,-1,-1,-1,-1,9,9,-1,9,-1,9,-1,-1,-1,-1,-1,-1,-1,-1,-1,-1,-1,-1,-1,-1,-1,-1,-1,-1,-1,-1,-1,-1,9,9,9,9,-1,-1,-1,-1,-1,9,-1,-1,9,-1,-1,-1,-1,-1,-1,-1,9,9,-1,9,-1,-1,-1,9,-1,9,-1,-1,-1,-1,9,-1,-1,-1,-1,-1,-1,-1,-1,-1,-1,-1,9,9,-1,-1,-1,-1,-1,9,-1,-1,9,9,-1,-1,9,9,-1,-1,-1,9,-1,-1,-1,-1,-1,-1,-1,-1,9,9,9,-1,-1,9,-1,-1,-1,9,-1,-1,9,-1,-1,]);
